0000000000000000
0000000000000000
0000000000000000
0000000000000000
1111000000000000
0001110000000000
0000111000000000
0000011100000000
0000001110000000
0000011111000000
0000110011100000
0001100001110000
0011000000111000
0110000000011100
0000000000000000
0000000000000000
